(declare-const income Real)
(declare-const p6_00 Real)
(declare-const p10_90 Real)
(declare-const p4_00 Real)
(declare-const p9_65 Real)
(declare-const p10_30 Real)
(declare-const p4_50 Real)
(declare-const p5_50 Real)
(declare-const fee_bl Real)
(declare-const p6_85 Real)
(declare-const p5_25 Real)
(assert (= p4_00 (* 0.04 (ite (> income 17150) 17150 income))))
(assert (= p4_50 (ite (> income 17150) (* 0.045 (- (ite (> income 23600) 23600 income) 17150)) 0)))
(assert (= p5_25 (ite (> income 23600) (* 0.0525 (- (ite (> income 27900) 27900 income) 23600)) 0)))
(assert (= p5_50 (ite (> income 27900) (* 0.055 (- (ite (> income 161550) 161550 income) 27900)) 0)))
(assert (= p6_00 (ite (> income 161550) (* 0.06 (- (ite (> income 323200) 323200 income) 161550)) 0)))
(assert (= p6_85 (ite (> income 323200) (* 0.0685 (- (ite (> income 2155350) 2155350 income) 323200)) 0)))
(assert (= p9_65 (ite (> income 2155350) (* 0.0965 (- (ite (> income 5000000) 5000000 income) 2155350)) 0)))
(assert (= p10_30 (ite (> income 5000000) (* 0.103 (- (ite (> income 25000000) 25000000 income) 5000000)) 0)))
(assert (= p10_90 (ite (> income 25000000) (* 0.109 (- income 25000000)) 0)))
(assert (= fee_bl (+ (+ (+ (+ (+ (+ (+ (+ p4_00 p4_50) p5_25) p5_50) p6_00) p6_85) p9_65) p10_30) p10_90)))